(set-info :source |printed by MathSAT|)
(declare-fun exclusive () Int)
(declare-fun call_illinois.ite40 () Int)
(declare-fun call_illinois.ite26 () Int)
(declare-fun call_illinois.ite37 () Int)
(declare-fun call_illinois.invalid () Int)
(declare-fun param_e7 () Bool)
(declare-fun call_illinois.flby4 () Int)
(declare-fun param_e5 () Bool)
(declare-fun call_illinois.g5 () Bool)
(declare-fun call_illinois.ite4 () Int)
(declare-fun call_illinois.ite5 () Int)
(declare-fun param_e3 () Bool)
(declare-fun call_illinois.ite30 () Int)
(declare-fun call_illinois.ite23 () Int)
(declare-fun call_illinois.ite9 () Int)
(declare-fun call_illinois.ite38 () Int)
(declare-fun call_illinois.ite15 () Int)
(declare-fun param_e9 () Bool)
(declare-fun param_e1 () Bool)
(declare-fun call_illinois.ite12 () Int)
(declare-fun flby () Bool)
(declare-fun invalid () Int)
(declare-fun call_illinois.ite27 () Int)
(declare-fun call_illinois.ite34 () Int)
(declare-fun call_illinois.shared () Int)
(declare-fun call_illinois.ite33 () Int)
(declare-fun call_illinois.ite25 () Int)
(declare-fun call_illinois.flby3 () Int)
(declare-fun call_illinois.ite3 () Int)
(declare-fun call_illinois.ite32 () Int)
(declare-fun call_illinois.flby2 () Int)
(declare-fun param_e2 () Bool)
(declare-fun call_illinois.ite42 () Int)
(declare-fun call_illinois.ite29 () Int)
(declare-fun call_illinois.ite44 () Int)
(declare-fun call_illinois.flby () Int)
(declare-fun call_illinois.ite28 () Int)
(declare-fun call_illinois.ite20 () Int)
(declare-fun call_illinois.ite8 () Int)
(declare-fun param_e8 () Bool)
(declare-fun call_illinois.ite () Int)
(declare-fun call_illinois.ite17 () Int)
(declare-fun param_e6 () Bool)
(declare-fun _OK_ () Bool)
(declare-fun call_illinois.g6 () Bool)
(declare-fun call_illinois.ite31 () Int)
(declare-fun call_illinois.ite35 () Int)
(declare-fun call_illinois.ite24 () Int)
(declare-fun call_illinois.ite6 () Int)
(declare-fun call_illinois.ite13 () Int)
(declare-fun call_illinois.ite47 () Int)
(declare-fun param_e4 () Bool)
(declare-fun call_illinois.ite21 () Int)
(declare-fun dirty () Int)
(declare-fun call_illinois.ite7 () Int)
(declare-fun call_illinois.dirty () Int)
(declare-fun call_illinois.ite43 () Int)
(declare-fun call_illinois.ite18 () Int)
(declare-fun call_illinois.exclusive () Int)
(declare-fun call_illinois.ite19 () Int)
(declare-fun call_excludes9.excludes () Bool)
(declare-fun call_Sofar.flby () Bool)
(declare-fun shared () Int)
(declare-fun call_illinois.ite39 () Int)
(declare-fun call_illinois.ite2 () Int)
(declare-fun call_illinois.ite36 () Int)
(declare-fun call_illinois.ite11 () Int)
(declare-fun call_illinois.ite16 () Int)
(declare-fun param_init_invalid () Int)
(declare-fun call_illinois.ite10 () Int)
(declare-fun call_Sofar.Sofar () Bool)
(declare-fun call_illinois.ite14 () Int)
(declare-fun call_illinois.ite46 () Int)
(declare-fun call_illinois.ite22 () Int)
(declare-fun env () Bool)
(declare-fun call_illinois.ite41 () Int)
(declare-fun call_illinois.ite45 () Int)
(define-fun .def_1261 () Bool (= call_Sofar.flby call_Sofar.Sofar))
(define-fun .def_1056 () Bool (not param_e2))
(define-fun .def_1037 () Bool (not param_e1))
(define-fun .def_1198 () Bool (and .def_1037 .def_1056))
(define-fun .def_1084 () Bool (not param_e3))
(define-fun .def_1199 () Bool (and .def_1084 .def_1198))
(define-fun .def_1110 () Bool (not param_e4))
(define-fun .def_1200 () Bool (and .def_1110 .def_1199))
(define-fun .def_1128 () Bool (not param_e5))
(define-fun .def_1201 () Bool (and .def_1128 .def_1200))
(define-fun .def_1153 () Bool (not param_e6))
(define-fun .def_1202 () Bool (and .def_1153 .def_1201))
(define-fun .def_949 () Bool (not param_e7))
(define-fun .def_1203 () Bool (and .def_949 .def_1202))
(define-fun .def_956 () Bool (not param_e8))
(define-fun .def_1204 () Bool (and .def_956 .def_1203))
(define-fun .def_936 () Bool (not param_e9))
(define-fun .def_1249 () Bool (and .def_936 .def_1204))
(define-fun .def_1241 () Bool (and param_e1 .def_1056))
(define-fun .def_1242 () Bool (and .def_1084 .def_1241))
(define-fun .def_1243 () Bool (and .def_1110 .def_1242))
(define-fun .def_1244 () Bool (and .def_1128 .def_1243))
(define-fun .def_1245 () Bool (and .def_1153 .def_1244))
(define-fun .def_1246 () Bool (and .def_949 .def_1245))
(define-fun .def_1247 () Bool (and .def_956 .def_1246))
(define-fun .def_1248 () Bool (and .def_936 .def_1247))
(define-fun .def_1250 () Bool (or .def_1248 .def_1249))
(define-fun .def_1233 () Bool (and .def_1037 param_e2))
(define-fun .def_1234 () Bool (and .def_1084 .def_1233))
(define-fun .def_1235 () Bool (and .def_1110 .def_1234))
(define-fun .def_1236 () Bool (and .def_1128 .def_1235))
(define-fun .def_1237 () Bool (and .def_1153 .def_1236))
(define-fun .def_1238 () Bool (and .def_949 .def_1237))
(define-fun .def_1239 () Bool (and .def_956 .def_1238))
(define-fun .def_1240 () Bool (and .def_936 .def_1239))
(define-fun .def_1251 () Bool (or .def_1240 .def_1250))
(define-fun .def_1226 () Bool (and param_e3 .def_1198))
(define-fun .def_1227 () Bool (and .def_1110 .def_1226))
(define-fun .def_1228 () Bool (and .def_1128 .def_1227))
(define-fun .def_1229 () Bool (and .def_1153 .def_1228))
(define-fun .def_1230 () Bool (and .def_949 .def_1229))
(define-fun .def_1231 () Bool (and .def_956 .def_1230))
(define-fun .def_1232 () Bool (and .def_936 .def_1231))
(define-fun .def_1252 () Bool (or .def_1232 .def_1251))
(define-fun .def_1220 () Bool (and param_e4 .def_1199))
(define-fun .def_1221 () Bool (and .def_1128 .def_1220))
(define-fun .def_1222 () Bool (and .def_1153 .def_1221))
(define-fun .def_1223 () Bool (and .def_949 .def_1222))
(define-fun .def_1224 () Bool (and .def_956 .def_1223))
(define-fun .def_1225 () Bool (and .def_936 .def_1224))
(define-fun .def_1253 () Bool (or .def_1225 .def_1252))
(define-fun .def_1215 () Bool (and param_e5 .def_1200))
(define-fun .def_1216 () Bool (and .def_1153 .def_1215))
(define-fun .def_1217 () Bool (and .def_949 .def_1216))
(define-fun .def_1218 () Bool (and .def_956 .def_1217))
(define-fun .def_1219 () Bool (and .def_936 .def_1218))
(define-fun .def_1254 () Bool (or .def_1219 .def_1253))
(define-fun .def_1211 () Bool (and param_e6 .def_1201))
(define-fun .def_1212 () Bool (and .def_949 .def_1211))
(define-fun .def_1213 () Bool (and .def_956 .def_1212))
(define-fun .def_1214 () Bool (and .def_936 .def_1213))
(define-fun .def_1255 () Bool (or .def_1214 .def_1254))
(define-fun .def_1208 () Bool (and param_e7 .def_1202))
(define-fun .def_1209 () Bool (and .def_956 .def_1208))
(define-fun .def_1210 () Bool (and .def_936 .def_1209))
(define-fun .def_1256 () Bool (or .def_1210 .def_1255))
(define-fun .def_1206 () Bool (and param_e8 .def_1203))
(define-fun .def_1207 () Bool (and .def_936 .def_1206))
(define-fun .def_1257 () Bool (or .def_1207 .def_1256))
(define-fun .def_1205 () Bool (and param_e9 .def_1204))
(define-fun .def_1258 () Bool (or .def_1205 .def_1257))
(define-fun .def_1259 () Bool (= call_excludes9.excludes .def_1258))
(define-fun .def_1196 () Bool (= call_illinois.flby4 call_illinois.shared))
(define-fun .def_1194 () Bool (= call_illinois.flby3 call_illinois.exclusive))
(define-fun .def_1192 () Bool (= call_illinois.flby2 call_illinois.dirty))
(define-fun .def_1190 () Bool (= call_illinois.flby call_illinois.invalid))
(define-fun .def_1186 () Bool (= call_illinois.ite11 call_illinois.ite8))
(define-fun .def_1187 () Bool (or .def_956 .def_1186))
(define-fun .def_1183 () Bool (= call_illinois.ite10 call_illinois.ite11))
(define-fun .def_1184 () Bool (or param_e8 .def_1183))
(define-fun .def_1188 () Bool (and .def_1184 .def_1187))
(define-fun .def_1179 () Bool (= call_illinois.ite12 call_illinois.ite7))
(define-fun .def_1180 () Bool (or .def_949 .def_1179))
(define-fun .def_1176 () Bool (= call_illinois.ite12 call_illinois.ite11))
(define-fun .def_1177 () Bool (or param_e7 .def_1176))
(define-fun .def_1181 () Bool (and .def_1177 .def_1180))
(define-fun .def_1171 () Bool (= call_illinois.ite43 call_illinois.ite44))
(define-fun .def_1172 () Bool (or param_e6 .def_1171))
(define-fun .def_1168 () Bool (= call_illinois.ite41 call_illinois.ite44))
(define-fun .def_1169 () Bool (or .def_1153 .def_1168))
(define-fun .def_1165 () Bool (= call_illinois.ite33 call_illinois.ite34))
(define-fun .def_1166 () Bool (or param_e6 .def_1165))
(define-fun .def_1162 () Bool (= call_illinois.ite31 call_illinois.ite34))
(define-fun .def_1163 () Bool (or .def_1153 .def_1162))
(define-fun .def_1159 () Bool (= call_illinois.ite23 call_illinois.ite24))
(define-fun .def_1160 () Bool (or param_e6 .def_1159))
(define-fun .def_1156 () Bool (= call_illinois.ite21 call_illinois.ite24))
(define-fun .def_1157 () Bool (or .def_1153 .def_1156))
(define-fun .def_1152 () Bool (= call_illinois.ite13 call_illinois.ite6))
(define-fun .def_1154 () Bool (or .def_1152 .def_1153))
(define-fun .def_1148 () Bool (= call_illinois.ite13 call_illinois.ite12))
(define-fun .def_1150 () Bool (or .def_1148 param_e6))
(define-fun .def_1155 () Bool (and .def_1150 .def_1154))
(define-fun .def_1158 () Bool (and .def_1155 .def_1157))
(define-fun .def_1161 () Bool (and .def_1158 .def_1160))
(define-fun .def_1164 () Bool (and .def_1161 .def_1163))
(define-fun .def_1167 () Bool (and .def_1164 .def_1166))
(define-fun .def_1170 () Bool (and .def_1167 .def_1169))
(define-fun .def_1173 () Bool (and .def_1170 .def_1172))
(define-fun .def_1143 () Bool (= call_illinois.ite45 call_illinois.ite44))
(define-fun .def_1144 () Bool (or param_e5 .def_1143))
(define-fun .def_1139 () Bool (= call_illinois.ite40 call_illinois.ite45))
(define-fun .def_1140 () Bool (or .def_1128 .def_1139))
(define-fun .def_1136 () Bool (= call_illinois.ite25 call_illinois.ite24))
(define-fun .def_1137 () Bool (or param_e5 .def_1136))
(define-fun .def_1132 () Bool (= call_illinois.ite25 call_illinois.ite20))
(define-fun .def_1133 () Bool (or .def_1128 .def_1132))
(define-fun .def_1127 () Bool (= call_illinois.ite14 call_illinois.ite5))
(define-fun .def_1129 () Bool (or .def_1127 .def_1128))
(define-fun .def_1123 () Bool (= call_illinois.ite14 call_illinois.ite13))
(define-fun .def_1125 () Bool (or .def_1123 param_e5))
(define-fun .def_1130 () Bool (and .def_1125 .def_1129))
(define-fun .def_1134 () Bool (and .def_1130 .def_1133))
(define-fun .def_1138 () Bool (and .def_1134 .def_1137))
(define-fun .def_1141 () Bool (and .def_1138 .def_1140))
(define-fun .def_1145 () Bool (and .def_1141 .def_1144))
(define-fun .def_1118 () Bool (= call_illinois.ite35 call_illinois.ite34))
(define-fun .def_1119 () Bool (or param_e4 .def_1118))
(define-fun .def_1114 () Bool (= call_illinois.ite35 call_illinois.ite30))
(define-fun .def_1115 () Bool (or .def_1110 .def_1114))
(define-fun .def_1109 () Bool (= call_illinois.ite26 call_illinois.ite19))
(define-fun .def_1111 () Bool (or .def_1109 .def_1110))
(define-fun .def_1105 () Bool (= call_illinois.ite26 call_illinois.ite25))
(define-fun .def_1107 () Bool (or .def_1105 param_e4))
(define-fun .def_1112 () Bool (and .def_1107 .def_1111))
(define-fun .def_1116 () Bool (and .def_1112 .def_1115))
(define-fun .def_1120 () Bool (and .def_1116 .def_1119))
(define-fun .def_1100 () Bool (= call_illinois.ite46 call_illinois.ite45))
(define-fun .def_1101 () Bool (or param_e3 .def_1100))
(define-fun .def_1096 () Bool (= call_illinois.ite46 call_illinois.ite39))
(define-fun .def_1097 () Bool (or .def_1084 .def_1096))
(define-fun .def_1092 () Bool (= call_illinois.ite36 call_illinois.ite35))
(define-fun .def_1093 () Bool (or param_e3 .def_1092))
(define-fun .def_1088 () Bool (= call_illinois.ite36 call_illinois.ite29))
(define-fun .def_1089 () Bool (or .def_1084 .def_1088))
(define-fun .def_1083 () Bool (= call_illinois.ite15 call_illinois.ite4))
(define-fun .def_1085 () Bool (or .def_1083 .def_1084))
(define-fun .def_1079 () Bool (= call_illinois.ite15 call_illinois.ite14))
(define-fun .def_1081 () Bool (or .def_1079 param_e3))
(define-fun .def_1086 () Bool (and .def_1081 .def_1085))
(define-fun .def_1090 () Bool (and .def_1086 .def_1089))
(define-fun .def_1094 () Bool (and .def_1090 .def_1093))
(define-fun .def_1098 () Bool (and .def_1094 .def_1097))
(define-fun .def_1102 () Bool (and .def_1098 .def_1101))
(define-fun .def_1074 () Bool (= call_illinois.ite47 call_illinois.ite46))
(define-fun .def_1075 () Bool (or param_e2 .def_1074))
(define-fun .def_1070 () Bool (= call_illinois.ite38 call_illinois.ite47))
(define-fun .def_1071 () Bool (or .def_1056 .def_1070))
(define-fun .def_1065 () Bool (= call_illinois.ite27 call_illinois.ite26))
(define-fun .def_1066 () Bool (or param_e2 .def_1065))
(define-fun .def_1061 () Bool (= call_illinois.ite18 call_illinois.ite27))
(define-fun .def_1062 () Bool (or .def_1056 .def_1061))
(define-fun .def_1055 () Bool (= call_illinois.ite16 call_illinois.ite3))
(define-fun .def_1057 () Bool (or .def_1055 .def_1056))
(define-fun .def_1051 () Bool (= call_illinois.ite16 call_illinois.ite15))
(define-fun .def_1053 () Bool (or .def_1051 param_e2))
(define-fun .def_1058 () Bool (and .def_1053 .def_1057))
(define-fun .def_1063 () Bool (and .def_1058 .def_1062))
(define-fun .def_1067 () Bool (and .def_1063 .def_1066))
(define-fun .def_1072 () Bool (and .def_1067 .def_1071))
(define-fun .def_1076 () Bool (and .def_1072 .def_1075))
(define-fun .def_1046 () Bool (= call_illinois.ite37 call_illinois.ite36))
(define-fun .def_1047 () Bool (or param_e1 .def_1046))
(define-fun .def_1042 () Bool (= call_illinois.ite28 call_illinois.ite37))
(define-fun .def_1043 () Bool (or .def_1037 .def_1042))
(define-fun .def_1036 () Bool (= call_illinois.ite17 call_illinois.ite2))
(define-fun .def_1038 () Bool (or .def_1036 .def_1037))
(define-fun .def_1032 () Bool (= call_illinois.ite17 call_illinois.ite16))
(define-fun .def_1034 () Bool (or .def_1032 param_e1))
(define-fun .def_1039 () Bool (and .def_1034 .def_1038))
(define-fun .def_1044 () Bool (and .def_1039 .def_1043))
(define-fun .def_1048 () Bool (and .def_1044 .def_1047))
(define-fun .def_1026 () Bool (= call_illinois.ite param_init_invalid))
(define-fun .def_1021 () Bool (<= param_init_invalid 0))
(define-fun .def_1027 () Bool (or .def_1021 .def_1026))
(define-fun .def_1023 () Int (+ call_illinois.ite param_init_invalid))
(define-fun .def_1024 () Bool (= .def_1023 1))
(define-fun .def_1022 () Bool (not .def_1021))
(define-fun .def_1025 () Bool (or .def_1022 .def_1024))
(define-fun .def_1028 () Bool (and .def_1025 .def_1027))
(define-fun .def_1018 () Bool (= env call_Sofar.Sofar))
(define-fun .def_1015 () Bool (= shared call_illinois.shared))
(define-fun .def_1011 () Bool (= exclusive call_illinois.exclusive))
(define-fun .def_1007 () Bool (= dirty call_illinois.dirty))
(define-fun .def_1003 () Bool (= invalid call_illinois.invalid))
(define-fun .def_998 () Bool (not env))
(define-fun .def_999 () Bool (or flby .def_998))
(define-fun .def_1000 () Bool (= _OK_ .def_999))
(define-fun .def_1004 () Bool (and .def_1000 .def_1003))
(define-fun .def_1008 () Bool (and .def_1004 .def_1007))
(define-fun .def_1012 () Bool (and .def_1008 .def_1011))
(define-fun .def_1016 () Bool (and .def_1012 .def_1015))
(define-fun .def_1019 () Bool (and .def_1016 .def_1018))
(define-fun .def_1029 () Bool (and .def_1019 .def_1028))
(define-fun .def_1049 () Bool (and .def_1029 .def_1048))
(define-fun .def_1077 () Bool (and .def_1049 .def_1076))
(define-fun .def_1103 () Bool (and .def_1077 .def_1102))
(define-fun .def_1121 () Bool (and .def_1103 .def_1120))
(define-fun .def_1146 () Bool (and .def_1121 .def_1145))
(define-fun .def_1174 () Bool (and .def_1146 .def_1173))
(define-fun .def_1182 () Bool (and .def_1174 .def_1181))
(define-fun .def_1189 () Bool (and .def_1182 .def_1188))
(define-fun .def_1191 () Bool (and .def_1189 .def_1190))
(define-fun .def_1193 () Bool (and .def_1191 .def_1192))
(define-fun .def_1195 () Bool (and .def_1193 .def_1194))
(define-fun .def_1197 () Bool (and .def_1195 .def_1196))
(define-fun .def_1260 () Bool (and .def_1197 .def_1259))
(define-fun .def_1262 () Bool (and .def_1260 .def_1261))
(define-fun .def_994 () Bool (= call_excludes9.excludes call_Sofar.flby))
(define-fun .def_990 () Bool (= call_illinois.flby4 0))
(define-fun .def_987 () Bool (= call_illinois.flby3 0))
(define-fun .def_984 () Bool (= call_illinois.flby2 0))
(define-fun .def_981 () Bool (= call_illinois.ite call_illinois.flby))
(define-fun .def_975 () Bool (= call_illinois.ite41 0))
(define-fun .def_968 () Bool (not call_illinois.g6))
(define-fun .def_976 () Bool (or .def_968 .def_975))
(define-fun .def_971 () Bool (= call_illinois.ite21 1))
(define-fun .def_972 () Bool (or .def_968 .def_971))
(define-fun .def_966 () Bool (= call_illinois.ite31 0))
(define-fun .def_969 () Bool (or .def_966 .def_968))
(define-fun .def_973 () Bool (and .def_969 .def_972))
(define-fun .def_977 () Bool (and .def_973 .def_976))
(define-fun .def_962 () Bool (= call_illinois.ite40 0))
(define-fun .def_960 () Bool (not call_illinois.g5))
(define-fun .def_963 () Bool (or .def_960 .def_962))
(define-fun .def_954 () Bool (= call_illinois.ite42 call_illinois.ite43))
(define-fun .def_957 () Bool (or .def_954 .def_956))
(define-fun .def_947 () Bool (= call_illinois.ite22 call_illinois.ite23))
(define-fun .def_950 () Bool (or .def_947 .def_949))
(define-fun .def_940 () Bool (= call_illinois.ite9 call_illinois.ite10))
(define-fun .def_941 () Bool (or .def_936 .def_940))
(define-fun .def_934 () Bool (= call_illinois.ite32 call_illinois.ite33))
(define-fun .def_937 () Bool (or .def_934 .def_936))
(define-fun .def_942 () Bool (and .def_937 .def_941))
(define-fun .def_944 () Bool (and .def_942 flby))
(define-fun .def_951 () Bool (and .def_944 .def_950))
(define-fun .def_958 () Bool (and .def_951 .def_957))
(define-fun .def_964 () Bool (and .def_958 .def_963))
(define-fun .def_978 () Bool (and .def_964 .def_977))
(define-fun .def_982 () Bool (and .def_978 .def_981))
(define-fun .def_985 () Bool (and .def_982 .def_984))
(define-fun .def_988 () Bool (and .def_985 .def_987))
(define-fun .def_991 () Bool (and .def_988 .def_990))
(define-fun .def_995 () Bool (and .def_991 .def_994))
(define-fun .def_1263 () Bool (and .def_995 .def_1262))
(assert .def_1263)
